(set-option :produce-proofs true)
(declare-const size Int)
(declare-const x000 Int)
(assert (< x000 2))
(assert (>= x000 0))
(declare-const x001 Int)
(assert (< x001 2))
(assert (>= x001 0))
(declare-const x002 Int)
(assert (< x002 2))
(assert (>= x002 0))
(declare-const x003 Int)
(assert (< x003 2))
(assert (>= x003 0))
(declare-const x004 Int)
(assert (< x004 2))
(assert (>= x004 0))
(declare-const x005 Int)
(assert (< x005 2))
(assert (>= x005 0))
(declare-const x006 Int)
(assert (< x006 2))
(assert (>= x006 0))
(declare-const x007 Int)
(assert (< x007 2))
(assert (>= x007 0))
(declare-const x008 Int)
(assert (< x008 2))
(assert (>= x008 0))
(declare-const x009 Int)
(assert (< x009 2))
(assert (>= x009 0))
(declare-const x010 Int)
(assert (< x010 2))
(assert (>= x010 0))
(declare-const x011 Int)
(assert (< x011 2))
(assert (>= x011 0))
(declare-const x012 Int)
(assert (< x012 2))
(assert (>= x012 0))
(declare-const x013 Int)
(assert (< x013 2))
(assert (>= x013 0))
(declare-const x014 Int)
(assert (< x014 2))
(assert (>= x014 0))
(declare-const x015 Int)
(assert (< x015 2))
(assert (>= x015 0))
(declare-const x016 Int)
(assert (< x016 2))
(assert (>= x016 0))
(declare-const x017 Int)
(assert (< x017 2))
(assert (>= x017 0))
(declare-const x018 Int)
(assert (< x018 2))
(assert (>= x018 0))
(declare-const x019 Int)
(assert (< x019 2))
(assert (>= x019 0))
(declare-const x020 Int)
(assert (< x020 2))
(assert (>= x020 0))
(declare-const x021 Int)
(assert (< x021 2))
(assert (>= x021 0))
(declare-const x022 Int)
(assert (< x022 2))
(assert (>= x022 0))
(declare-const x023 Int)
(assert (< x023 2))
(assert (>= x023 0))
(declare-const x024 Int)
(assert (< x024 2))
(assert (>= x024 0))
(declare-const x025 Int)
(assert (< x025 2))
(assert (>= x025 0))
(declare-const x026 Int)
(assert (< x026 2))
(assert (>= x026 0))
(declare-const x027 Int)
(assert (< x027 2))
(assert (>= x027 0))
(declare-const x028 Int)
(assert (< x028 2))
(assert (>= x028 0))
(declare-const x029 Int)
(assert (< x029 2))
(assert (>= x029 0))
(declare-const x030 Int)
(assert (< x030 2))
(assert (>= x030 0))
(declare-const x031 Int)
(assert (< x031 2))
(assert (>= x031 0))
(declare-const x032 Int)
(assert (< x032 2))
(assert (>= x032 0))
(declare-const x033 Int)
(assert (< x033 2))
(assert (>= x033 0))
(declare-const x034 Int)
(assert (< x034 2))
(assert (>= x034 0))
(declare-const x035 Int)
(assert (< x035 2))
(assert (>= x035 0))
(declare-const x036 Int)
(assert (< x036 2))
(assert (>= x036 0))
(declare-const x037 Int)
(assert (< x037 2))
(assert (>= x037 0))
(declare-const x038 Int)
(assert (< x038 2))
(assert (>= x038 0))
(declare-const x039 Int)
(assert (< x039 2))
(assert (>= x039 0))
(declare-const x040 Int)
(assert (< x040 2))
(assert (>= x040 0))
(declare-const x041 Int)
(assert (< x041 2))
(assert (>= x041 0))
(declare-const x042 Int)
(assert (< x042 2))
(assert (>= x042 0))
(declare-const x043 Int)
(assert (< x043 2))
(assert (>= x043 0))
(declare-const x044 Int)
(assert (< x044 2))
(assert (>= x044 0))
(declare-const x045 Int)
(assert (< x045 2))
(assert (>= x045 0))
(declare-const x046 Int)
(assert (< x046 2))
(assert (>= x046 0))
(assert (= size (+ x000 x001 x002 x003 x004 x005 x006 x007 x008 x009 x010 x011 x012 x013 x014 x015 x016 x017 x018 x019 x020 x021 x022 x023 x024 x025 x026 x027 x028 x029 x030 x031 x032 x033 x034 x035 x036 x037 x038 x039 x040 x041 x042 x043 x044 x045 x046)))
(assert (> 7 (+ x000 x001 x002 x003 x004 x005 x006)))
(assert (> 7 (+ x000 x002 x004 x006 x008 x010 x012)))
(assert (> 7 (+ x000 x003 x006 x009 x012 x015 x018)))
(assert (> 7 (+ x000 x004 x008 x012 x016 x020 x024)))
(assert (> 7 (+ x000 x005 x010 x015 x020 x025 x030)))
(assert (> 7 (+ x000 x006 x012 x018 x024 x030 x036)))
(assert (> 7 (+ x000 x007 x014 x021 x028 x035 x042)))
(assert (> 7 (+ x001 x002 x003 x004 x005 x006 x007)))
(assert (> 7 (+ x001 x003 x005 x007 x009 x011 x013)))
(assert (> 7 (+ x001 x004 x007 x010 x013 x016 x019)))
(assert (> 7 (+ x001 x005 x009 x013 x017 x021 x025)))
(assert (> 7 (+ x001 x006 x011 x016 x021 x026 x031)))
(assert (> 7 (+ x001 x007 x013 x019 x025 x031 x037)))
(assert (> 7 (+ x001 x008 x015 x022 x029 x036 x043)))
(assert (> 7 (+ x002 x003 x004 x005 x006 x007 x008)))
(assert (> 7 (+ x002 x004 x006 x008 x010 x012 x014)))
(assert (> 7 (+ x002 x005 x008 x011 x014 x017 x020)))
(assert (> 7 (+ x002 x006 x010 x014 x018 x022 x026)))
(assert (> 7 (+ x002 x007 x012 x017 x022 x027 x032)))
(assert (> 7 (+ x002 x008 x014 x020 x026 x032 x038)))
(assert (> 7 (+ x002 x009 x016 x023 x030 x037 x044)))
(assert (> 7 (+ x003 x004 x005 x006 x007 x008 x009)))
(assert (> 7 (+ x003 x005 x007 x009 x011 x013 x015)))
(assert (> 7 (+ x003 x006 x009 x012 x015 x018 x021)))
(assert (> 7 (+ x003 x007 x011 x015 x019 x023 x027)))
(assert (> 7 (+ x003 x008 x013 x018 x023 x028 x033)))
(assert (> 7 (+ x003 x009 x015 x021 x027 x033 x039)))
(assert (> 7 (+ x003 x010 x017 x024 x031 x038 x045)))
(assert (> 7 (+ x004 x005 x006 x007 x008 x009 x010)))
(assert (> 7 (+ x004 x006 x008 x010 x012 x014 x016)))
(assert (> 7 (+ x004 x007 x010 x013 x016 x019 x022)))
(assert (> 7 (+ x004 x008 x012 x016 x020 x024 x028)))
(assert (> 7 (+ x004 x009 x014 x019 x024 x029 x034)))
(assert (> 7 (+ x004 x010 x016 x022 x028 x034 x040)))
(assert (> 7 (+ x004 x011 x018 x025 x032 x039 x046)))
(assert (> 7 (+ x005 x006 x007 x008 x009 x010 x011)))
(assert (> 7 (+ x005 x007 x009 x011 x013 x015 x017)))
(assert (> 7 (+ x005 x008 x011 x014 x017 x020 x023)))
(assert (> 7 (+ x005 x009 x013 x017 x021 x025 x029)))
(assert (> 7 (+ x005 x010 x015 x020 x025 x030 x035)))
(assert (> 7 (+ x005 x011 x017 x023 x029 x035 x041)))
(assert (> 7 (+ x006 x007 x008 x009 x010 x011 x012)))
(assert (> 7 (+ x006 x008 x010 x012 x014 x016 x018)))
(assert (> 7 (+ x006 x009 x012 x015 x018 x021 x024)))
(assert (> 7 (+ x006 x010 x014 x018 x022 x026 x030)))
(assert (> 7 (+ x006 x011 x016 x021 x026 x031 x036)))
(assert (> 7 (+ x006 x012 x018 x024 x030 x036 x042)))
(assert (> 7 (+ x007 x008 x009 x010 x011 x012 x013)))
(assert (> 7 (+ x007 x009 x011 x013 x015 x017 x019)))
(assert (> 7 (+ x007 x010 x013 x016 x019 x022 x025)))
(assert (> 7 (+ x007 x011 x015 x019 x023 x027 x031)))
(assert (> 7 (+ x007 x012 x017 x022 x027 x032 x037)))
(assert (> 7 (+ x007 x013 x019 x025 x031 x037 x043)))
(assert (> 7 (+ x008 x009 x010 x011 x012 x013 x014)))
(assert (> 7 (+ x008 x010 x012 x014 x016 x018 x020)))
(assert (> 7 (+ x008 x011 x014 x017 x020 x023 x026)))
(assert (> 7 (+ x008 x012 x016 x020 x024 x028 x032)))
(assert (> 7 (+ x008 x013 x018 x023 x028 x033 x038)))
(assert (> 7 (+ x008 x014 x020 x026 x032 x038 x044)))
(assert (> 7 (+ x009 x010 x011 x012 x013 x014 x015)))
(assert (> 7 (+ x009 x011 x013 x015 x017 x019 x021)))
(assert (> 7 (+ x009 x012 x015 x018 x021 x024 x027)))
(assert (> 7 (+ x009 x013 x017 x021 x025 x029 x033)))
(assert (> 7 (+ x009 x014 x019 x024 x029 x034 x039)))
(assert (> 7 (+ x009 x015 x021 x027 x033 x039 x045)))
(assert (> 7 (+ x010 x011 x012 x013 x014 x015 x016)))
(assert (> 7 (+ x010 x012 x014 x016 x018 x020 x022)))
(assert (> 7 (+ x010 x013 x016 x019 x022 x025 x028)))
(assert (> 7 (+ x010 x014 x018 x022 x026 x030 x034)))
(assert (> 7 (+ x010 x015 x020 x025 x030 x035 x040)))
(assert (> 7 (+ x010 x016 x022 x028 x034 x040 x046)))
(assert (> 7 (+ x011 x012 x013 x014 x015 x016 x017)))
(assert (> 7 (+ x011 x013 x015 x017 x019 x021 x023)))
(assert (> 7 (+ x011 x014 x017 x020 x023 x026 x029)))
(assert (> 7 (+ x011 x015 x019 x023 x027 x031 x035)))
(assert (> 7 (+ x011 x016 x021 x026 x031 x036 x041)))
(assert (> 7 (+ x012 x013 x014 x015 x016 x017 x018)))
(assert (> 7 (+ x012 x014 x016 x018 x020 x022 x024)))
(assert (> 7 (+ x012 x015 x018 x021 x024 x027 x030)))
(assert (> 7 (+ x012 x016 x020 x024 x028 x032 x036)))
(assert (> 7 (+ x012 x017 x022 x027 x032 x037 x042)))
(assert (> 7 (+ x013 x014 x015 x016 x017 x018 x019)))
(assert (> 7 (+ x013 x015 x017 x019 x021 x023 x025)))
(assert (> 7 (+ x013 x016 x019 x022 x025 x028 x031)))
(assert (> 7 (+ x013 x017 x021 x025 x029 x033 x037)))
(assert (> 7 (+ x013 x018 x023 x028 x033 x038 x043)))
(assert (> 7 (+ x014 x015 x016 x017 x018 x019 x020)))
(assert (> 7 (+ x014 x016 x018 x020 x022 x024 x026)))
(assert (> 7 (+ x014 x017 x020 x023 x026 x029 x032)))
(assert (> 7 (+ x014 x018 x022 x026 x030 x034 x038)))
(assert (> 7 (+ x014 x019 x024 x029 x034 x039 x044)))
(assert (> 7 (+ x015 x016 x017 x018 x019 x020 x021)))
(assert (> 7 (+ x015 x017 x019 x021 x023 x025 x027)))
(assert (> 7 (+ x015 x018 x021 x024 x027 x030 x033)))
(assert (> 7 (+ x015 x019 x023 x027 x031 x035 x039)))
(assert (> 7 (+ x015 x020 x025 x030 x035 x040 x045)))
(assert (> 7 (+ x016 x017 x018 x019 x020 x021 x022)))
(assert (> 7 (+ x016 x018 x020 x022 x024 x026 x028)))
(assert (> 7 (+ x016 x019 x022 x025 x028 x031 x034)))
(assert (> 7 (+ x016 x020 x024 x028 x032 x036 x040)))
(assert (> 7 (+ x016 x021 x026 x031 x036 x041 x046)))
(assert (> 7 (+ x017 x018 x019 x020 x021 x022 x023)))
(assert (> 7 (+ x017 x019 x021 x023 x025 x027 x029)))
(assert (> 7 (+ x017 x020 x023 x026 x029 x032 x035)))
(assert (> 7 (+ x017 x021 x025 x029 x033 x037 x041)))
(assert (> 7 (+ x018 x019 x020 x021 x022 x023 x024)))
(assert (> 7 (+ x018 x020 x022 x024 x026 x028 x030)))
(assert (> 7 (+ x018 x021 x024 x027 x030 x033 x036)))
(assert (> 7 (+ x018 x022 x026 x030 x034 x038 x042)))
(assert (> 7 (+ x019 x020 x021 x022 x023 x024 x025)))
(assert (> 7 (+ x019 x021 x023 x025 x027 x029 x031)))
(assert (> 7 (+ x019 x022 x025 x028 x031 x034 x037)))
(assert (> 7 (+ x019 x023 x027 x031 x035 x039 x043)))
(assert (> 7 (+ x020 x021 x022 x023 x024 x025 x026)))
(assert (> 7 (+ x020 x022 x024 x026 x028 x030 x032)))
(assert (> 7 (+ x020 x023 x026 x029 x032 x035 x038)))
(assert (> 7 (+ x020 x024 x028 x032 x036 x040 x044)))
(assert (> 7 (+ x021 x022 x023 x024 x025 x026 x027)))
(assert (> 7 (+ x021 x023 x025 x027 x029 x031 x033)))
(assert (> 7 (+ x021 x024 x027 x030 x033 x036 x039)))
(assert (> 7 (+ x021 x025 x029 x033 x037 x041 x045)))
(assert (> 7 (+ x022 x023 x024 x025 x026 x027 x028)))
(assert (> 7 (+ x022 x024 x026 x028 x030 x032 x034)))
(assert (> 7 (+ x022 x025 x028 x031 x034 x037 x040)))
(assert (> 7 (+ x022 x026 x030 x034 x038 x042 x046)))
(assert (> 7 (+ x023 x024 x025 x026 x027 x028 x029)))
(assert (> 7 (+ x023 x025 x027 x029 x031 x033 x035)))
(assert (> 7 (+ x023 x026 x029 x032 x035 x038 x041)))
(assert (> 7 (+ x024 x025 x026 x027 x028 x029 x030)))
(assert (> 7 (+ x024 x026 x028 x030 x032 x034 x036)))
(assert (> 7 (+ x024 x027 x030 x033 x036 x039 x042)))
(assert (> 7 (+ x025 x026 x027 x028 x029 x030 x031)))
(assert (> 7 (+ x025 x027 x029 x031 x033 x035 x037)))
(assert (> 7 (+ x025 x028 x031 x034 x037 x040 x043)))
(assert (> 7 (+ x026 x027 x028 x029 x030 x031 x032)))
(assert (> 7 (+ x026 x028 x030 x032 x034 x036 x038)))
(assert (> 7 (+ x026 x029 x032 x035 x038 x041 x044)))
(assert (> 7 (+ x027 x028 x029 x030 x031 x032 x033)))
(assert (> 7 (+ x027 x029 x031 x033 x035 x037 x039)))
(assert (> 7 (+ x027 x030 x033 x036 x039 x042 x045)))
(assert (> 7 (+ x028 x029 x030 x031 x032 x033 x034)))
(assert (> 7 (+ x028 x030 x032 x034 x036 x038 x040)))
(assert (> 7 (+ x028 x031 x034 x037 x040 x043 x046)))
(assert (> 7 (+ x029 x030 x031 x032 x033 x034 x035)))
(assert (> 7 (+ x029 x031 x033 x035 x037 x039 x041)))
(assert (> 7 (+ x030 x031 x032 x033 x034 x035 x036)))
(assert (> 7 (+ x030 x032 x034 x036 x038 x040 x042)))
(assert (> 7 (+ x031 x032 x033 x034 x035 x036 x037)))
(assert (> 7 (+ x031 x033 x035 x037 x039 x041 x043)))
(assert (> 7 (+ x032 x033 x034 x035 x036 x037 x038)))
(assert (> 7 (+ x032 x034 x036 x038 x040 x042 x044)))
(assert (> 7 (+ x033 x034 x035 x036 x037 x038 x039)))
(assert (> 7 (+ x033 x035 x037 x039 x041 x043 x045)))
(assert (> 7 (+ x034 x035 x036 x037 x038 x039 x040)))
(assert (> 7 (+ x034 x036 x038 x040 x042 x044 x046)))
(assert (> 7 (+ x035 x036 x037 x038 x039 x040 x041)))
(assert (> 7 (+ x036 x037 x038 x039 x040 x041 x042)))
(assert (> 7 (+ x037 x038 x039 x040 x041 x042 x043)))
(assert (> 7 (+ x038 x039 x040 x041 x042 x043 x044)))
(assert (> 7 (+ x039 x040 x041 x042 x043 x044 x045)))
(assert (> 7 (+ x040 x041 x042 x043 x044 x045 x046)))
(assert (>= size 38))
(check-sat)
(get-proof)
